NAME : rbg048a.tw.9383.tour
COMMENT : Length = 9383
COMMENT : Found by LKH [Keld Helsgaun] Thu Jan 16 16:40:56 2020
TYPE : TOUR
DIMENSION : 49
TOUR_SECTION
1
2
3
4
5
6
32
10
7
16
15
13
11
12
14
33
8
18
17
9
20
19
22
28
21
25
27
23
24
26
29
36
31
35
34
30
37
39
48
45
43
40
38
46
47
49
42
41
44
-1
EOF
